p cnf 30 21
c p distribution  0.9 0.1
c p distribution  0.3 0.7
c p distribution  0.03 0.97
c p distribution  0.05 0.95
c p distribution  0.001 0.999
c p distribution  0.02 0.98
c p distribution  0.9 0.1
c p distribution  0.2 0.8
c p distribution  0.65 0.35
c p distribution  0.3 0.7
21 -1 0
22 -2 0
23 -3 0
24 -4 0
25 -21 -23 -5 0
26 -21 -23 -6 0
25 -22 -23 -7 0
26 -22 -23 -8 0
25 -21 -24 -9 0
26 -21 -24 -10 0
25 -22 -24 -11 0
26 -22 -24 -12 0
27 -25 -13 0
28 -25 -14 0
27 -26 -15 0
28 -26 -16 0
29 -25 -17 0
30 -25 -18 0
29 -26 -19 0
30 -26 -20 0
-27 0
